20
587 233 220
97 81 27
102 78 39
113 46 36
66 50 42
101 30 26
100 56 35
91 50 40
106 61 56
103 63 58
75 57 41
71 68 64
85 67 39
97 63 56
61 48 30
80 54 35
73 66 62
90 74 69
118 61 40
94 43 31
90 49 30
thpack7_3